(set-info :smt-lib-version 2.6)
(set-info :category "crafted")
(set-logic QF_FF)
(define-sort FF0 () (_ FiniteField 52435875175126190479447740508185965837690552500527637822603658699938581184513))
(declare-fun out_alt () FF0)
(declare-fun _2_alt () FF0)
(declare-fun _1_alt () FF0)
(declare-fun _0_alt () FF0)
(declare-fun out () FF0)
(declare-fun _2 () FF0)
(declare-fun _1 () FF0)
(declare-fun _0 () FF0)
(assert 
  (let ((let0 out_alt))
  (let ((let1 _2_alt))
  (let ((let2 (= let1 let0)))
  (let ((let3 _1_alt))
  (let ((let4 _0_alt))
  (let ((let5 (ff.mul let4 let3)))
  (let ((let6 (= let5 let1)))
  (let ((let7 (ff.mul let3 let3)))
  (let ((let8 (= let7 let3)))
  (let ((let9 (ff.mul let4 let4)))
  (let ((let10 (= let9 let4)))
  (let ((let11 (and let10 let8 let6 let2)))
  (let ((let12 out))
  (let ((let13 _2))
  (let ((let14 (= let13 let12)))
  (let ((let15 _1))
  (let ((let16 _0))
  (let ((let17 (ff.mul let16 let15)))
  (let ((let18 (= let17 let13)))
  (let ((let19 (ff.mul let15 let15)))
  (let ((let20 (= let19 let15)))
  (let ((let21 (ff.mul let16 let16)))
  (let ((let22 (= let21 let16)))
  (let ((let23 (and let22 let20 let18 let14)))
  (let ((let24 (= let12 let0)))
  (let ((let25 (not let24)))
  (let ((let26 (= let15 let3)))
  (let ((let27 (= let16 let4)))
  (let ((let28 (and let27 let26)))
  (let ((let29 (and let28 let25 let23 let11)))
  let29
))))))))))))))))))))))))))))))
)
(check-sat)
